NAME          
ROWS
 N  OBJ
 L  c1
 L  c2
 L  c3
COLUMNS
    MARKER    'MARKER'                 'INTORG'
    x[1]      c1        358
    x[1]      c2        487
    x[1]      c3        488
    x[1]      OBJ       -283
    x[2]      c1        345
    x[2]      c2        936
    x[2]      c3        703
    x[2]      OBJ       -82
    x[3]      c1        402
    x[3]      c2        712
    x[3]      c3        268
    x[3]      OBJ       -267
    x[4]      c1        59
    x[4]      c2        413
    x[4]      c3        448
    x[4]      OBJ       -399
    x[5]      c1        510
    x[5]      c2        341
    x[5]      c3        649
    x[5]      OBJ       -24
    x[6]      c1        233
    x[6]      c2        165
    x[6]      c3        359
    x[6]      OBJ       -754
    x[7]      c1        859
    x[7]      c2        804
    x[7]      c3        478
    x[7]      OBJ       -96
    x[8]      c1        269
    x[8]      c2        533
    x[8]      c3        416
    x[8]      OBJ       -818
    x[9]      c1        245
    x[9]      c2        977
    x[9]      c3        785
    x[9]      OBJ       -174
    x[10]     c1        590
    x[10]     c2        664
    x[10]     c3        7
    x[10]     OBJ       -614
RHS
    rhs       c1        1935
    rhs       c2        3016
    rhs       c3        2300
RANGES
BOUNDS
 LO bounds    x[1]      0
 PL bounds    x[1]
 LO bounds    x[2]      0
 PL bounds    x[2]
 LO bounds    x[3]      0
 PL bounds    x[3]
 LO bounds    x[4]      0
 PL bounds    x[4]
 LO bounds    x[5]      0
 PL bounds    x[5]
 LO bounds    x[6]      0
 PL bounds    x[6]
 LO bounds    x[7]      0
 PL bounds    x[7]
 LO bounds    x[8]      0
 PL bounds    x[8]
 LO bounds    x[9]      0
 PL bounds    x[9]
 LO bounds    x[10]     0
 PL bounds    x[10]
ENDATA
